NAME : morphed20-5-9
COMMENT : Generated using the function morphInstances from the R-package netgen (Bossek,2015) - Number of clusters: 5 Alpha: 0.5
TYPE : TSP
DIMENSION : 20
EDGE_WEIGHT_TYPE : EUC_2D
NODE_COORD_SECTION
1 22.2296792894 83.5271769872
2 3.1762760839 6.720328939
3 14.4210446231 30.870651655
4 15.3105594059 11.7717340176
5 66.0241204554 55.3955817626
6 17.2689225568 85.5829159163
7 55.2848559684 27.1410159649
8 54.5278097038 25.9858300282
9 61.5777346389 88.7138762239
10 98.0748743709 73.5001865761
11 6.4798894985 21.2224573064
12 9.3755900024 95.1970752888
13 93.7675167938 47.330112685
14 30.4880619689 89.2300038285
15 62.4688825867 3.5870947119
16 49.3854240156 88.6816281704
17 43.2153124105 84.0106736994
18 95.8323863731 78.5638329594
19 54.4109339969 17.7682435519
20 51.5896661256 77.2420553613
EOF
